38 6 69 33 46 48 62 76 77 58 70 23 40 93 64 12 42 15 79 34 29 85 20 47 55 9 26 36 99 73 59 97 50 7 45 44 78 18 94 65 54 71 72 28 53 81 66 2 56 4 92 37 41 100 60 88 3 13 49 67 86 84 91 24 80 25 16 43 1 51 75 57 63 83 32 74 90 96 11 68 22 27 10 17 39 95 19 82 8 61 87 98 30 5 14 21 35 52 31 89